% File represents an instance of a Composite Structure problem to be solved by a CP framework
% Created on 2025-03-25 14:06:11.728
T = 58;
n = 16;
m = 24;
edges = [(2, 1),
(5, 6),
(9, 10),
(13, 14),
(3, 2),
(6, 7),
(11, 10),
(15, 14),
(4, 3),
(8, 7),
(11, 12),
(15, 16),
(5, 1),
(5, 9),
(13, 9),
(6, 2),
(6, 10),
(10, 14),
(3, 7),
(11, 7),
(11, 15),
(4, 8),
(8, 12),
(12, 16)];
counts = [|10, 6, 16, 10,
|12, 6, 18, 10,
|12, 8, 22, 10,
|14, 12, 22, 10,
|12, 6, 20, 14,
|12, 6, 18, 14,
|12, 6, 18, 8,
|12, 8, 22, 8,
|10, 6, 16, 14,
|8, 6, 16, 14,
|12, 6, 18, 16,
|12, 6, 18, 8,
|10, 6, 16, 20,
|8, 6, 14, 14,
|8, 6, 14, 16,
|8, 6, 14, 8|];
